60
120
84	5
83	3
82	8
81	5
80	3
79	3
78	7
77	3
76	6
75	3
74	3
73	6
72	7
71	6
70	4
69	8
68	6
67	1
66	2
65	9
64	6
63	5
62	5
61	1
60	5
59	4
58	12
57	8
56	3
55	4
54	2
53	4
52	9
51	4
50	8
49	5
48	8
47	4
46	7
45	2
44	5
43	6
42	2
41	5
40	10
38	3
37	1
36	5
35	3
34	6
33	6
32	1
31	6
30	5
29	1
28	4
27	5
26	8
25	7
24	7
